
products_required = 3;  %I want to buy 3 products
nearby_stores =10; %I have 10 shops nearby



%(same size )
particular_product_size = 
array2d(1..products_required ,1..nearby_stores,
[
0.00, 1.20, 2.90, 0.00,  3.00, 1.10, 1.10, 1.10, 1.10, 1.10,
0.00,  300.00, 0.00, 100.00, 15.00, 7.00, 10.10, 2.20, 20.1, 1.1,
0.00,  10.25, 2.90, 3.50, 5.20, 2.80, 3.50, 10.10, 5.4, 10.2
]);




  
store_product_costs=array2d(1..products_required ,1..nearby_stores,
[ 100.12,  200.2, 1.1, 4.5,  300.0, 0.0, 100.0, 45.1, 1000.0, 45.1,
0.0,  300.7, 0.0, 20.7, 1500.9, 70.9,70.1,20.1,100.0,45.1,
0.0,  225.7, 29.7,35.5, 52.4, 28.4,89.9,100.0,100.0,45.1,
]);

store_delivery_costs = array2d(1..products_required ,1..nearby_stores,
                          [12.56, 15.2, 33.5,10.5,10.1,1.1,12.2,12.2,100.0,45.1,
                         12.56, 15.2, 33.5,10.5,10.1,1.1,12.2,12.2,100.0,45.1,
                         12.56, 15.2, 33.5,10.5,10.1,1.1,12.2,12.2,100.0,45.1, ]);